41
1000
199	2
198	1
197	3
196	3
194	1
193	1
192	4
191	2
190	4
189	1
187	3
186	3
184	1
183	6
182	3
181	3
180	3
179	4
178	2
177	3
175	2
174	2
173	4
172	3
171	3
170	2
168	4
166	1
165	1
164	1
163	2
162	2
161	1
160	1
159	1
157	3
155	2
154	3
153	4
152	1
150	4
